
 102   30
  10   10   10   10   10   10   10   10   10   10   10   10   10   10   10   10   10   10   10   10   10   10   10   10   10   10   10   10   10   10

   0   0   0   0   0   0   0   0   0   0   0   0   0   0   0   0   0   0   0   0   0   0   0   0   0   0   0   0   0   0   0  25 2 3 4 5 6 7 8 9 11 12 13 14 15 16 17 18 19 20 21 23 24 25 27 36 43 
   8   0   0   0   0   0   0   0   0   0   0   1   0   0   0   0   0   0   0   0   0   0   0   0   0   0   0   0   0   0   0  12 101 60 48 45 44 41 37 29 28 26 22 10 
   8   0   0   0   0   3   0   0   0   0   0   0   0   0   0   0   0   0   0   0   0   1   0   0   0   0   0   0   0   0   0  10 71 68 60 57 56 47 46 44 42 10 
   5   0   0   1   0   0   0   0   0   0   0   0   0   3   0   0   0   1   0   0   0   0   0   0   0   0   0   0   0   4   0  15 101 97 69 67 55 54 52 49 44 42 33 32 31 30 26 
   6   0   0   0   0   0   3   0   0   0   0   0   0   0   5   0   1   0   0   0   0   5   0   0   0   0   0   0   0   0   0  16 101 97 93 70 69 68 66 59 53 51 50 45 44 37 35 26 
   7   0   1   0   0   0   0   0   1   0   0   0   0   0   0   0   0   8   0   0   0   9   0   0   0   0   0   0   0   0   0  10 97 60 59 57 55 53 48 38 33 26 
   6   0   0   0   0   0   0   3   0   0   0   0   1   2   0   0   0   0   0   0   0   0   0   0   0   1   0   0   0   0   1  19 101 100 97 92 90 88 85 70 68 67 62 59 58 54 51 49 44 42 37 
  10   0   0   0   0   0   0   0   0   0   1   0   0   0   0   0   0   0   0   0   0   0   0   0   0   0   0   0   0   0   0  14 100 98 95 69 68 66 55 54 52 51 49 47 34 31 
   8   0   0   0   2   8   0   0   0   0   0   7   0   0   0   0   5   7   0   0   0   0   0   0   0   0   0   0   0   0   6  21 99 98 96 95 94 90 89 69 68 67 63 62 61 60 59 56 53 52 51 49 41 
   1   0   0   0   0   5   0   0   0   0   0   0   0   0   0   0   4   0   0   0   0   0   0   0   0   0   0   0   1   0   0  17 99 98 97 96 94 70 69 67 62 59 55 53 52 51 49 40 32 
   7   0   0   0   0  10   4   0   0   1   0   0   0   0   0   0   7   0   0   0   0   0   0   0   0   0   0   0   0   0   0  16 98 94 89 71 70 60 59 56 53 52 51 50 49 41 40 39 
   4   0   0   0   0   0   0   0   0   0   0   0   0   0   0   1   0   6   0   0   0   0   1   0   0   0   1   0   0   0   0  16 101 99 98 96 67 65 62 60 58 57 55 53 52 49 47 33 
   1   0   0   0   7   7   0   5   8   0   0   8   0   0   0   0   0   0   0   0   0   0   0   0   0   0   6   4   0   3   0  15 100 99 98 69 67 65 64 62 61 59 58 57 54 52 22 
   6   0   0   0  10   0   0   0   0   6   0   0   0   0   0   0   0   0   0   0   1   4   0   0   3   0   0   0   0   5   0  18 101 96 95 94 90 71 68 61 60 59 56 55 53 52 50 49 44 41 
   4   0   0   0   9   0   0   0   0   8   0   0   0   0   0   0   0   0   0   0   0   0   0   0   0   0   0   0   0   0   0  18 101 97 95 92 91 89 88 87 69 66 62 60 59 58 57 49 47 37 
   9   0   3   5   0   0   0   6   0   0   0   0   0   0   0   0   0   0   0   0   0   0   0   1   0   0   0   5   0   0   0  16 98 97 95 67 65 62 61 59 58 57 53 52 50 47 44 42 
   1   1   0   0   0   0   0   0   0   0   0   0   0   0   0   0   0   0   0   1   0   0   0   0   0   0   0   0   0   0   0  24 101 100 99 98 96 95 93 91 89 88 87 83 80 71 67 64 61 60 59 58 57 53 48 47 
   4   0   0   0   0   4   0   0   0   0   5   0   0   0   0   0   0   0   1   0   0   0   0   9   0   0   0   0   6   0   0  13 101 100 98 70 66 65 62 59 52 49 47 44 32 
   3   7   0   0   0   0   0   0   0   0   0   0   0   0   0   0   0   0   0   5   5   0   0   0   0   0   0   0   0   0   0  17 99 97 96 91 89 69 67 63 62 61 59 58 55 53 52 47 42 
   2   0   0   0   5   0   4   0   0   0   0   0   0   4   1   0   0   0   8   0   0  10   0   0   0   0   5   5   0   0   0  10 96 92 90 62 61 59 55 42 41 28 
   8   0   0   0   0   0   0   0   0   5   0   0   0   8   0   5   7   0   0   0   0   0   0   0   0   0   0   5   0   0   0  13 101 99 98 96 95 65 62 61 56 52 47 44 42 
   3   0   0   0   0   0   0   0   0   0   0   0   0   0   0   0   0   0   0   0   0   0   0   0   0   0   0   0   0   9   0  11 97 96 95 92 91 89 77 76 63 47 42 
   6   0   7   0   0   0   6   0   0   0   0   0   0   7   0   0   0   4   7   0   6   0   0   0   0   0   0   0   0   0   8  15 101 100 98 95 93 90 88 86 85 80 76 66 65 62 44 
  10   0   7   0   0   0   0   0   0   0   0   0   9   4   8   0   0   0   4   0   0   0   0   0   0   0   0   0   0   0   0  14 99 97 91 90 89 88 83 78 77 66 65 63 50 48 
   1   6   0   0   0   0   9   0   0   0   0   0   0   0   0   0   0   0   0   0   7   0   0   0   0   0   0   0   0   0   7  18 100 97 93 91 90 89 88 85 83 81 80 69 66 64 63 61 59 53 
   6   0   0   0   0   0   0   0   0   0  10   0   0   0   0   0   0   0   0   0   0   4   0   0   0   0   0   0   0   0   5  19 100 98 95 91 90 88 84 82 81 80 78 76 73 65 64 62 61 58 56 
   9   0   0   0   0   0   0   0   0   7   0   0   0   0   0   0   0   0   0   6   0   5   8   0   4   0   0   7   0   0   0  17 101 100 97 94 90 89 86 85 84 82 80 78 77 65 63 61 49 
  10   0   6   0   8   0   0   0   0   0   0   0   0   0   0   0   0   0   0   0   0   5   0   0   0   0   0   0   5   0   0  19 94 93 89 87 86 85 84 83 82 81 80 77 72 68 67 66 65 64 63 
   5   0   5   6   0   0   0   0   0   0   0   0   0   9   0   0   0   0   0   0   0   0   0   0   0   0   0   0   0   0   0  17 97 96 95 93 92 91 89 88 87 84 83 82 75 68 65 63 53 
   8   0   0   0   0   0   0   0   6   0   0   0   0   0   0   0   0   0   0   0   0   0   0   0   0   0   0   0   0   0   0  13 96 95 88 87 83 80 77 75 65 63 60 59 47 
   1   6   0   0   0   0   0  10   0   0  10   0   0   0   0   0   0   0   0   0   0   0   0   0   0   0   0   0   0   0   6  14 99 94 92 91 89 87 86 82 81 64 63 62 59 58 
   7   0   7   0   0   0   0   0   0   0   0   6   0   0   0   7   0   0   7   5   0   0   0   0   0   0   0   0   0   0   0  15 95 93 92 90 87 85 84 83 82 81 80 64 63 61 58 
   7   0   0   0   0   0   3   0   0  10   0   0   0   0   0   0   0   0   0   5   0   0   0   0   0   0   0   0   0   0   0  15 95 94 90 89 86 85 84 82 81 77 73 70 68 66 61 
  10   0   0   0   0   0   0   0   0   8   0   0   0   0   0   0   0   0   0   0   0   0   7   0   0   0   0   8   0   0   0  15 96 92 88 87 84 83 81 80 78 77 76 75 65 63 61 
   9   0   0   0   0   0   0   0   0   3   0   0   0  10   0   5   0   0   0   0   0   0   0   0   0   5   0   0   0   0   0  14 99 94 92 88 86 84 81 80 78 76 75 65 63 58 
   6   0   5   0   0   0   0   0   0   0   0   0   0   0   0  10   0   0   0   0   0   0   0   0   0   0   0   0   0   0   0  13 96 95 91 90 89 85 80 79 77 76 64 63 61 
  10   0   0   0   6   0   0   0   0   0   0   0   0   0   0   0   0   0   0   0   6   0   0   0   0   0  10   0   0   0   0  11 99 96 86 84 83 81 76 75 63 61 55 
   5   0   0   0   0   0   0   0   0   0   0   5   0   0   0   0   0   0   0   0   4   0   0   0   0   0   0   0   6   0   4  13 96 94 93 92 90 89 87 84 83 82 80 76 61 
   2   0   0   0   0   0   9   0   0   0   0   0   0   0   0   0   0   0   0   0   0   0   0   6   5   0   0   0   0   0   0  12 95 93 91 83 82 81 78 77 72 66 64 63 
   4   0   0   0   0   0   0   0  10   0   4   0   0   0   0   8   0   0   0   0   0   0   9   0   0   0   0   0   0   0   0  11 100 92 91 88 86 82 81 79 76 64 61 
   3   0   0   0   0   0   0   0   0   0   0   0   0   0   0   0   0   0   6   0   9   0   0   0   0   0   0   0   4   0   0   9 97 91 88 86 83 80 78 66 58 
  10   6   0   0   0   0   5   0   0   0   0   0   0   0   0   0   0   0   0  10   0   0   0   0   0   0   0   5   0  10   0  11 94 93 87 84 83 81 80 79 75 72 66 
   6   0   0   0   0   4   0   0   0   0   0   0   0   0   0   0   0   0   0   0   0   7   0   0   0   3   3   0   0   0   0  10 98 85 82 80 77 76 73 72 65 64 
   5   0   0   0   0   0   0   0   0   0   7   0   0   0   0   0   0   0   0   0   0   0   0   0   8   0   0   0   0   0   0  10 91 89 83 82 81 78 77 75 72 63 
  10   0  10   0   0   0   0   0   0   0   0   3   0   0   6   0  10   0   0   0   0   0   0   0   0   0   0   8   0   0   0   8 87 84 83 76 74 72 67 63 
   2   0   0   0   0   4   0   0   0   6  10   0   0   0   0   0   0   7   0   0   0   0   0   0  10   0   5   0   0   0   0   9 88 85 82 81 79 78 77 76 73 
   9   0   0   0   0   0   0   0   0   9  10   0   6   0   0   0   0   0   0   0   0   0   0   0   8   0   0   0   0   0   6   8 94 90 86 85 84 82 78 73 
   8   0   0   0   0   0   0   0   0   0   5   8   0   0   0   0   0   0  10   0   0   0   0   0   0   0   0   4   7   0   0   8 92 85 84 82 81 75 73 72 
   7   0   0   0   0   0   0   0   0   0   3   0   0   0   0   0   0   0   0   0   0   0   0   0   0   0   0   0   0   3   0   7 93 81 76 74 73 72 64 
   1   0   0   0   0   0   0   0   0   0   0   0   0   0   0   0   0   5   0   0   0   0   0   0   0   0   9   0   0   0   8   6 87 85 80 76 74 64 
   6  10   0   0   0   0   4   0   0   0   0   0   0   0   0   0   0   0   0   0   0   0   0   0   0   0   0   0   0   0   0   5 78 77 76 65 64 
   1   0  10   0   4   0   0   7   0   0   0   0   6   0   0   5   0   0   0   0   0   0   0   8   0   0   0   0   0   0   0   5 92 88 87 76 74 
   8   0   0   0   0   0   0   0   0   3   0   0   0   0   9   0   0   0   0   6   0   1   0   0   0   0   0   0   8   0   0   5 78 77 76 74 72 
   3   0   0   0   0   6   0   0   0   0   0   0   0   0   0   0   0   0   0   0   0   0   0   9   0   5   3   0   0   0   0   4 96 76 72 63 
   2   0   0   0   0   0   0   7   3   0   3   0   0   0   0   7   0   0   0  10   0   7   6   0   0   6   8   0   0   7   0   4 80 78 74 72 
   2   4   0   0   7   0   0   0   7   0   0   0   0   0   0   0   0   0   0   0   0   0   0   0   0   0   0   0   0   0   0   4 86 83 77 72 
   2   6   0   0   5   0   0   0   0   5   0   0   0   0   0   0   0   0   0   0   0   0   0   0   0   0   0   0   0   0   0   3 81 72 63 
   6   0   0   0   0   0   5   0   0   0   0   0   0   0   0   0   0   0   0   0   0   0   0   0   0   6   0   0   0   0   0   3 79 77 72 
   9   0   0   0   0   0   6   0   0   0   0   0   0   0   0   0   0   0   0   0   0   0   0   0   0   0   5   0   0   0   9   3 84 74 73 
   4   0   0   0   0   0   8   0   0   0   0   0   0   0   0   0   0   2   6   0   0   0   0   0   0   0   0   0   0   0   0   3 79 73 72 
   4   0   0   0   7   0   0   0   0   0   0   0   0   0   0   0   0   0   0   0   0   0   0   0   0   0   0   0   5   0   0   2 74 72 
   8   0   0   0   0   0   0   0   0   0   0   0   0  10   0   0   0   0   6   0   0  10   0   0   0   0   0   0   0   0   0   2 83 75 
  10   0   4   0   0   6   0   6   0   0   0   0   0   0   0   0   0   0   0   0   3   0   0   0   5   0   0   0   0   8   0   1 73 
   5   0   0   0   0   0   0   0   0   7   0   0   5   0   0   0   0   0   0   0   0   0   0   0   0   0   0   0   0   0   0   1 75 
   5   0   0   0   0   0   4   0   0   0   0   0   0   4   5   0   0   0   0   0   0   6   0   0   6   0   7   0   0   0   0   1 79 
   3   0   0   0   0   0   0   0   0   7   0   0   0   0   0   0   0   6   0   5   0   0   0   4   0   8   0   0   0   0   0   1 74 
   2   0   0  10   0   0   0   0   0   0   0   0   0   0   0   9   0  10   0   0   0   0   0   3   0   0   0   0   6   0   0   1 78 
   9   0   0   0   0   0   0   0   0   0   0   0   0   5   0   0   0   0   0   0   0   0   0   0   0   0   0   6   0  10   0   1 76 
   7   0   0   0   6   0   0   6   0   0   0   0   0   0   4   0   0   5   0   0   0   0   0   0   0   0   0   0   0   0   0   1 82 
   3   0   0   4   0   0   0   0   0   0   0   8   0   0   0   0   0   0   0   0   0   0   6   0   0   0   0   0   0   0   6   1 80 
   9   0   0   0   0   0   0   4   7   0   0   6   0   3   0   3   8   0   0   0   0   0   0   0   0   0   0   0   0   0   0   1 78 
   8   7   0   0   5   0   0   0   0   0   0   0   0   0   0   0   0   7   0   0   0   0   0   0   0   6   0   0   0   0   0   1 102
   7   0   0   8   0   0   9   0   0   0   0   6   4   0   0   0   0   6   0   0   0   0   0   0   0   0   0   0   0   5   0   1 102
   3   0   0   0   0   5   0   5   0   5   0   0   0   0   0   5   0   0   0   0   0   6   0   0   0   0   0   0   0   0   0   1 102
   6   0   0   0   0   0   0   0   0   0   0   0   0   0   0   0   0   0   0   8   0   0   0   0   0   0   0   0   0   6   0   1 102
   8   0   0   0   0   0   0   0   0   0   0   0   0   0   6   0   0   0   9   0   0   0   0   5   0   0   0   0   0   0   0   1 102
   7   0   0   0   0  10   0   0   0   0   0   0   0   0   0   0   0   0   5   0   0   0   0   0   0  10   0   0   0   0   0   1 102
   6   0   0   0   0   0   0   0   0   0   0   0   0   0   0   0   0   0   0   0   0   0   0   0   0   0   0   0   7   0   5   1 102
   5   0   0   0   0   0   0   0   0   0   0   0   0   0   0   0   0   0   0   6   0   0   0   0   6   0   0   0   7   0   0   1 102
   9   9   0   0   0   0   0   0   0   0   4   0   7   0   0   0   0   0   0   0   0   0   0   0   4   0   0   0   0   0   0   1 102
   9   0   8   0   0   0  10   0   0   0   0   8   5   0   0   0   0   0   0   0   0   0   8   0   0   0  10   0   0   0   6   1 102
   8   0   0   0   0   0   0   0   0   0   0   0   0   0   0   0   0   0   2   0   0   7   0   0   0   0   0   0   0   0   5   1 102
   6   0   0   3   0   0   0   0   0   0   0   0   0   0   0   0   0   0   0   0   0   0   0   7   0   0   0   0   0   0   0   1 102
   5   0   0   0   0   0   7   0   0   0   0   0   0   0   0   0   0   0   0   5   0   0   0   6   0   8   0   0   0   0   8   1 102
   8   0   0   0   0   0   0   0   0   0   0   0   0   0   0   0   0   0   0   0   0   0   0   0   0   0   0   5   7   0   0   1 102
  10   0   0   0   0   0   0   0   5   0   0   0   0   0   0   0   0   0   0   0   0   0   0   0   0   0   0   0   7   0   0   1 102
   6   0   0   0   0   0   0   7   0   0   0   0   0   9   0   0   0   0   0   0   0   3   0   8   0   0   0   0   0   0   0   1 102
   3   0   0   7   1   0   0   0   0   0   0   0   0   0   0   0   0   6   0   0   0   0   0   6   0   0   0   0   0   0   0   1 102
   9   0   4   0   0   0   0   0   0   0   0   0   0   0   0   0   6   0   0   0   7   0   0   0   0   0   0   0   0   0   0   1 102
   2   0   0   0   9   0   0   0   0   0   0   0   0   0   0   0   0   0   0   0   0   0   0   0   0   0   6   0   0   0   0   1 102
   8   0   0   0   0   0   0   0   0   6   0   0   0   0   0   0   0   0   8   0  10   0   0   0   0   0   0  10   0   0   0   1 102
   4   0   0   0   5   0   0   0   6   0   0   4   0   0   4   7   0   0   6   0   0   0   3   0   0   0   0   0   0   0   0   1 102
   6   0   0   0   0   0   0   0   0   0   0   0   0   0   0   0   0   0   0   0   0   0   0   0   0   0   7   0   0   0   0   1 102
   5   0   0   0   0   0   0   0   0   0   0   0   0   0   8   0   0   0   0   0   5   0   0   0   0   0   0   0   8   3   0   1 102
   1   4   0   0   0   0   0   0   0   0   0   8   0   0   0   0   0   0   0   0   0   8   0   0   0   0   0   0   0   0   0   1 102
   1   0   0   9   0   0   0   8   0   0   0   0   0   0  10   0   0   0   4   0   0   0   0   0   0   0   4   0   0   0   0   1 102
  10   0   0   0   0   0   0   0   0   0   0   3  10   0   0   0   0  10   0   0   8   0   0   0   0   0   0   6   0   0   0   1 102
   6   4   0   7   0   0   0   0   0   0   0   0   0   0   0   0   0   0   0   0   7   0   0   0   0   0   7   0   0   5   0   1 102
   2   0   0   0   0   0   0   0   0   0   0   0   7   0   0   0   0   0   7   0   0   0   0   0   0   0   0   0   0   0   0   1 102
   4   0   7   0   0   0   0   0   7   6   0   9   0   0   0   0   0   0   0   0   0  10   0   0   0   0   0   0   0   0   0   1 102
   8   8   0   0   0   0   0   4   0   0   0   0   0   0   0   0   0   0   0   0   0   0   0   0   7   8   0   0   6   0   0   1 102
   0   0   0   0   0   0   0   0   0   0   0   0   0   0   0   0   0   0   0   0   0   0   0   0   0   0   0   0   0   0   0   0 
